\* Park Location Model: Maximum number of blocks serviced *\
Maximize
Maximum_number_of_blocks_serviced: z1 + z10 + z101 + z102 + z103 + z105 + z106
 + z109 + z11 + z111 + z112 + z113 + z114 + z116 + z118 + z119 + z120 + z121
 + z123 + z124 + z125 + z126 + z13 + z130 + z131 + z132 + z133 + z135 + z136
 + z137 + z138 + z14 + z145 + z147 + z148 + z149 + z150 + z17 + z18 + z19 + z2
 + z22 + z23 + z25 + z26 + z27 + z28 + z29 + z30 + z31 + z32 + z33 + z34 + z35
 + z37 + z39 + z4 + z40 + z41 + z43 + z44 + z46 + z48 + z50 + z51 + z52 + z53
 + z54 + z56 + z57 + z58 + z60 + z61 + z62 + z63 + z64 + z65 + z67 + z69 + z70
 + z71 + z73 + z74 + z75 + z77 + z79 + z8 + z80 + z81 + z82 + z83 + z84 + z86
 + z87 + z88 + z89 + z9 + z90 + z91 + z92 + z93 + z94 + z95 + z96 + z97 + z99
Subject To
Can_only_build_5_park: y104 + y107 + y108 + y110 + y117 + y12 + y122 + y134
 + y146 + y15 + y16 + y24 + y3 + y38 + y45 + y47 + y49 + y55 + y59 + y66 + y72
 + y78 + y98 <= 5
If_a_park_serving_lot_101_is_picked_then_lot_101_must_be_serviced: - y117
 + z101 >= 0
If_a_park_serving_lot_102_is_picked_then_lot_102_must_be_serviced: - y117
 + z102 >= 0
If_a_park_serving_lot_103_is_picked_then_lot_103_must_be_serviced: - y104
 - y117 + 2 z103 >= 0
If_a_park_serving_lot_105_is_picked_then_lot_105_must_be_serviced: - y104
 + z105 >= 0
If_a_park_serving_lot_106_is_picked_then_lot_106_must_be_serviced: - y107
 - y122 + 2 z106 >= 0
If_a_park_serving_lot_109_is_picked_then_lot_109_must_be_serviced: - y108
 - y110 + 2 z109 >= 0
If_a_park_serving_lot_10_is_picked_then_lot_10_must_be_serviced: - y24 + z10
 >= 0
If_a_park_serving_lot_111_is_picked_then_lot_111_must_be_serviced: - y110
 + z111 >= 0
If_a_park_serving_lot_112_is_picked_then_lot_112_must_be_serviced: - y98
 + z112 >= 0
If_a_park_serving_lot_113_is_picked_then_lot_113_must_be_serviced: - y98
 + z113 >= 0
If_a_park_serving_lot_114_is_picked_then_lot_114_must_be_serviced: - y98
 + z114 >= 0
If_a_park_serving_lot_116_is_picked_then_lot_116_must_be_serviced: - y117
 + z116 >= 0
If_a_park_serving_lot_118_is_picked_then_lot_118_must_be_serviced: - y104
 - y117 - y134 + 3 z118 >= 0
If_a_park_serving_lot_119_is_picked_then_lot_119_must_be_serviced: - y104
 - y134 + 2 z119 >= 0
If_a_park_serving_lot_11_is_picked_then_lot_11_must_be_serviced: - y12 + z11
 >= 0
If_a_park_serving_lot_120_is_picked_then_lot_120_must_be_serviced: - y104
 - y134 + 2 z120 >= 0
If_a_park_serving_lot_121_is_picked_then_lot_121_must_be_serviced: - y107
 - y122 + 2 z121 >= 0
If_a_park_serving_lot_123_is_picked_then_lot_123_must_be_serviced: - y107
 - y108 - y122 + 3 z123 >= 0
If_a_park_serving_lot_124_is_picked_then_lot_124_must_be_serviced: - y108
 - y110 + 2 z124 >= 0
If_a_park_serving_lot_125_is_picked_then_lot_125_must_be_serviced: - y110
 + z125 >= 0
If_a_park_serving_lot_126_is_picked_then_lot_126_must_be_serviced: - y110
 + z126 >= 0
If_a_park_serving_lot_130_is_picked_then_lot_130_must_be_serviced: - y146
 + z130 >= 0
If_a_park_serving_lot_131_is_picked_then_lot_131_must_be_serviced: - y117
 - y146 + 2 z131 >= 0
If_a_park_serving_lot_132_is_picked_then_lot_132_must_be_serviced: - y117
 - y146 + 2 z132 >= 0
If_a_park_serving_lot_133_is_picked_then_lot_133_must_be_serviced: - y117
 - y134 + 2 z133 >= 0
If_a_park_serving_lot_135_is_picked_then_lot_135_must_be_serviced: - y134
 + z135 >= 0
If_a_park_serving_lot_136_is_picked_then_lot_136_must_be_serviced: - y122
 + z136 >= 0
If_a_park_serving_lot_137_is_picked_then_lot_137_must_be_serviced: - y122
 + z137 >= 0
If_a_park_serving_lot_138_is_picked_then_lot_138_must_be_serviced: - y122
 + z138 >= 0
If_a_park_serving_lot_13_is_picked_then_lot_13_must_be_serviced: - y12 + z13
 >= 0
If_a_park_serving_lot_145_is_picked_then_lot_145_must_be_serviced: - y146
 + z145 >= 0
If_a_park_serving_lot_147_is_picked_then_lot_147_must_be_serviced: - y146
 + z147 >= 0
If_a_park_serving_lot_148_is_picked_then_lot_148_must_be_serviced: - y134
 + z148 >= 0
If_a_park_serving_lot_149_is_picked_then_lot_149_must_be_serviced: - y134
 + z149 >= 0
If_a_park_serving_lot_14_is_picked_then_lot_14_must_be_serviced: - y15 + z14
 >= 0
If_a_park_serving_lot_150_is_picked_then_lot_150_must_be_serviced: - y134
 + z150 >= 0
If_a_park_serving_lot_17_is_picked_then_lot_17_must_be_serviced: - y16 - y3
 + 2 z17 >= 0
If_a_park_serving_lot_18_is_picked_then_lot_18_must_be_serviced: - y3 + z18
 >= 0
If_a_park_serving_lot_19_is_picked_then_lot_19_must_be_serviced: - y3 + z19
 >= 0
If_a_park_serving_lot_1_is_picked_then_lot_1_must_be_serviced: - y16 + z1 >= 0
If_a_park_serving_lot_22_is_picked_then_lot_22_must_be_serviced: - y38 + z22
 >= 0
If_a_park_serving_lot_23_is_picked_then_lot_23_must_be_serviced: - y24 - y38
 + 2 z23 >= 0
If_a_park_serving_lot_25_is_picked_then_lot_25_must_be_serviced: - y24 + z25
 >= 0
If_a_park_serving_lot_26_is_picked_then_lot_26_must_be_serviced: - y12 + z26
 >= 0
If_a_park_serving_lot_27_is_picked_then_lot_27_must_be_serviced: - y12 + z27
 >= 0
If_a_park_serving_lot_28_is_picked_then_lot_28_must_be_serviced: - y12 + z28
 >= 0
If_a_park_serving_lot_29_is_picked_then_lot_29_must_be_serviced: - y15 - y45
 + 2 z29 >= 0
If_a_park_serving_lot_2_is_picked_then_lot_2_must_be_serviced: - y16 - y3
 + 2 z2 >= 0
If_a_park_serving_lot_30_is_picked_then_lot_30_must_be_serviced: - y15 - y45
 + 2 z30 >= 0
If_a_park_serving_lot_31_is_picked_then_lot_31_must_be_serviced: - y16 - y47
 + 2 z31 >= 0
If_a_park_serving_lot_32_is_picked_then_lot_32_must_be_serviced: - y16 - y47
 + 2 z32 >= 0
If_a_park_serving_lot_33_is_picked_then_lot_33_must_be_serviced: - y47 - y49
 + 2 z33 >= 0
If_a_park_serving_lot_34_is_picked_then_lot_34_must_be_serviced: - y49 + z34
 >= 0
If_a_park_serving_lot_35_is_picked_then_lot_35_must_be_serviced: - y49 + z35
 >= 0
If_a_park_serving_lot_37_is_picked_then_lot_37_must_be_serviced: - y38 + z37
 >= 0
If_a_park_serving_lot_39_is_picked_then_lot_39_must_be_serviced: - y24 - y38
 - y55 + 3 z39 >= 0
If_a_park_serving_lot_40_is_picked_then_lot_40_must_be_serviced: - y24 - y55
 + 2 z40 >= 0
If_a_park_serving_lot_41_is_picked_then_lot_41_must_be_serviced: - y55 + z41
 >= 0
If_a_park_serving_lot_43_is_picked_then_lot_43_must_be_serviced: - y59 + z43
 >= 0
If_a_park_serving_lot_44_is_picked_then_lot_44_must_be_serviced: - y45 - y59
 + 2 z44 >= 0
If_a_park_serving_lot_46_is_picked_then_lot_46_must_be_serviced: - y47 + z46
 >= 0
If_a_park_serving_lot_48_is_picked_then_lot_48_must_be_serviced: - y47 - y49
 + 2 z48 >= 0
If_a_park_serving_lot_4_is_picked_then_lot_4_must_be_serviced: - y3 + z4 >= 0
If_a_park_serving_lot_50_is_picked_then_lot_50_must_be_serviced: - y49 - y66
 + 2 z50 >= 0
If_a_park_serving_lot_51_is_picked_then_lot_51_must_be_serviced: - y66 + z51
 >= 0
If_a_park_serving_lot_52_is_picked_then_lot_52_must_be_serviced: - y38 - y66
 + 2 z52 >= 0
If_a_park_serving_lot_53_is_picked_then_lot_53_must_be_serviced: - y38 + z53
 >= 0
If_a_park_serving_lot_54_is_picked_then_lot_54_must_be_serviced: - y38 - y55
 + 2 z54 >= 0
If_a_park_serving_lot_56_is_picked_then_lot_56_must_be_serviced: - y55 - y72
 + 2 z56 >= 0
If_a_park_serving_lot_57_is_picked_then_lot_57_must_be_serviced: - y72 + z57
 >= 0
If_a_park_serving_lot_58_is_picked_then_lot_58_must_be_serviced: - y59 - y72
 + 2 z58 >= 0
If_a_park_serving_lot_60_is_picked_then_lot_60_must_be_serviced: - y45 - y59
 + 2 z60 >= 0
If_a_park_serving_lot_61_is_picked_then_lot_61_must_be_serviced: - y47 + z61
 >= 0
If_a_park_serving_lot_62_is_picked_then_lot_62_must_be_serviced: - y47 - y78
 + 2 z62 >= 0
If_a_park_serving_lot_63_is_picked_then_lot_63_must_be_serviced: - y47 - y49
 - y78 + 3 z63 >= 0
If_a_park_serving_lot_64_is_picked_then_lot_64_must_be_serviced: - y49 - y78
 + 2 z64 >= 0
If_a_park_serving_lot_65_is_picked_then_lot_65_must_be_serviced: - y49 - y66
 + 2 z65 >= 0
If_a_park_serving_lot_67_is_picked_then_lot_67_must_be_serviced: - y66 + z67
 >= 0
If_a_park_serving_lot_69_is_picked_then_lot_69_must_be_serviced: - y55 + z69
 >= 0
If_a_park_serving_lot_70_is_picked_then_lot_70_must_be_serviced: - y55 + z70
 >= 0
If_a_park_serving_lot_71_is_picked_then_lot_71_must_be_serviced: - y55 - y72
 + 2 z71 >= 0
If_a_park_serving_lot_73_is_picked_then_lot_73_must_be_serviced: - y59 - y72
 + 2 z73 >= 0
If_a_park_serving_lot_74_is_picked_then_lot_74_must_be_serviced: - y59 + z74
 >= 0
If_a_park_serving_lot_75_is_picked_then_lot_75_must_be_serviced: - y59 + z75
 >= 0
If_a_park_serving_lot_77_is_picked_then_lot_77_must_be_serviced: - y78 + z77
 >= 0
If_a_park_serving_lot_79_is_picked_then_lot_79_must_be_serviced: - y78 + z79
 >= 0
If_a_park_serving_lot_80_is_picked_then_lot_80_must_be_serviced: - y66 + z80
 >= 0
If_a_park_serving_lot_81_is_picked_then_lot_81_must_be_serviced: - y66 + z81
 >= 0
If_a_park_serving_lot_82_is_picked_then_lot_82_must_be_serviced: - y66 - y98
 + 2 z82 >= 0
If_a_park_serving_lot_83_is_picked_then_lot_83_must_be_serviced: - y98 + z83
 >= 0
If_a_park_serving_lot_84_is_picked_then_lot_84_must_be_serviced: - y98 + z84
 >= 0
If_a_park_serving_lot_86_is_picked_then_lot_86_must_be_serviced: - y72 + z86
 >= 0
If_a_park_serving_lot_87_is_picked_then_lot_87_must_be_serviced: - y72 + z87
 >= 0
If_a_park_serving_lot_88_is_picked_then_lot_88_must_be_serviced: - y104 - y72
 + 2 z88 >= 0
If_a_park_serving_lot_89_is_picked_then_lot_89_must_be_serviced: - y104 + z89
 >= 0
If_a_park_serving_lot_8_is_picked_then_lot_8_must_be_serviced: - y24 + z8 >= 0
If_a_park_serving_lot_90_is_picked_then_lot_90_must_be_serviced: - y104 + z90
 >= 0
If_a_park_serving_lot_91_is_picked_then_lot_91_must_be_serviced: - y107 + z91
 >= 0
If_a_park_serving_lot_92_is_picked_then_lot_92_must_be_serviced: - y107 - y108
 - y78 + 3 z92 >= 0
If_a_park_serving_lot_93_is_picked_then_lot_93_must_be_serviced: - y107 - y108
 - y78 + 3 z93 >= 0
If_a_park_serving_lot_94_is_picked_then_lot_94_must_be_serviced: - y108 - y110
 - y78 + 3 z94 >= 0
If_a_park_serving_lot_95_is_picked_then_lot_95_must_be_serviced: - y110 + z95
 >= 0
If_a_park_serving_lot_96_is_picked_then_lot_96_must_be_serviced: - y110 + z96
 >= 0
If_a_park_serving_lot_97_is_picked_then_lot_97_must_be_serviced: - y98 + z97
 >= 0
If_a_park_serving_lot_99_is_picked_then_lot_99_must_be_serviced: - y98 + z99
 >= 0
If_a_park_serving_lot_9_is_picked_then_lot_9_must_be_serviced: - y24 + z9 >= 0
If_lot_101_is_serviced_at_least_one_park_is_built: y117 - z101 >= 0
If_lot_102_is_serviced_at_least_one_park_is_built: y117 - z102 >= 0
If_lot_103_is_serviced_at_least_one_park_is_built: y104 + y117 - z103 >= 0
If_lot_105_is_serviced_at_least_one_park_is_built: y104 - z105 >= 0
If_lot_106_is_serviced_at_least_one_park_is_built: y107 + y122 - z106 >= 0
If_lot_109_is_serviced_at_least_one_park_is_built: y108 + y110 - z109 >= 0
If_lot_10_is_serviced_at_least_one_park_is_built: y24 - z10 >= 0
If_lot_111_is_serviced_at_least_one_park_is_built: y110 - z111 >= 0
If_lot_112_is_serviced_at_least_one_park_is_built: y98 - z112 >= 0
If_lot_113_is_serviced_at_least_one_park_is_built: y98 - z113 >= 0
If_lot_114_is_serviced_at_least_one_park_is_built: y98 - z114 >= 0
If_lot_116_is_serviced_at_least_one_park_is_built: y117 - z116 >= 0
If_lot_118_is_serviced_at_least_one_park_is_built: y104 + y117 + y134 - z118
 >= 0
If_lot_119_is_serviced_at_least_one_park_is_built: y104 + y134 - z119 >= 0
If_lot_11_is_serviced_at_least_one_park_is_built: y12 - z11 >= 0
If_lot_120_is_serviced_at_least_one_park_is_built: y104 + y134 - z120 >= 0
If_lot_121_is_serviced_at_least_one_park_is_built: y107 + y122 - z121 >= 0
If_lot_123_is_serviced_at_least_one_park_is_built: y107 + y108 + y122 - z123
 >= 0
If_lot_124_is_serviced_at_least_one_park_is_built: y108 + y110 - z124 >= 0
If_lot_125_is_serviced_at_least_one_park_is_built: y110 - z125 >= 0
If_lot_126_is_serviced_at_least_one_park_is_built: y110 - z126 >= 0
If_lot_130_is_serviced_at_least_one_park_is_built: y146 - z130 >= 0
If_lot_131_is_serviced_at_least_one_park_is_built: y117 + y146 - z131 >= 0
If_lot_132_is_serviced_at_least_one_park_is_built: y117 + y146 - z132 >= 0
If_lot_133_is_serviced_at_least_one_park_is_built: y117 + y134 - z133 >= 0
If_lot_135_is_serviced_at_least_one_park_is_built: y134 - z135 >= 0
If_lot_136_is_serviced_at_least_one_park_is_built: y122 - z136 >= 0
If_lot_137_is_serviced_at_least_one_park_is_built: y122 - z137 >= 0
If_lot_138_is_serviced_at_least_one_park_is_built: y122 - z138 >= 0
If_lot_13_is_serviced_at_least_one_park_is_built: y12 - z13 >= 0
If_lot_145_is_serviced_at_least_one_park_is_built: y146 - z145 >= 0
If_lot_147_is_serviced_at_least_one_park_is_built: y146 - z147 >= 0
If_lot_148_is_serviced_at_least_one_park_is_built: y134 - z148 >= 0
If_lot_149_is_serviced_at_least_one_park_is_built: y134 - z149 >= 0
If_lot_14_is_serviced_at_least_one_park_is_built: y15 - z14 >= 0
If_lot_150_is_serviced_at_least_one_park_is_built: y134 - z150 >= 0
If_lot_17_is_serviced_at_least_one_park_is_built: y16 + y3 - z17 >= 0
If_lot_18_is_serviced_at_least_one_park_is_built: y3 - z18 >= 0
If_lot_19_is_serviced_at_least_one_park_is_built: y3 - z19 >= 0
If_lot_1_is_serviced_at_least_one_park_is_built: y16 - z1 >= 0
If_lot_22_is_serviced_at_least_one_park_is_built: y38 - z22 >= 0
If_lot_23_is_serviced_at_least_one_park_is_built: y24 + y38 - z23 >= 0
If_lot_25_is_serviced_at_least_one_park_is_built: y24 - z25 >= 0
If_lot_26_is_serviced_at_least_one_park_is_built: y12 - z26 >= 0
If_lot_27_is_serviced_at_least_one_park_is_built: y12 - z27 >= 0
If_lot_28_is_serviced_at_least_one_park_is_built: y12 - z28 >= 0
If_lot_29_is_serviced_at_least_one_park_is_built: y15 + y45 - z29 >= 0
If_lot_2_is_serviced_at_least_one_park_is_built: y16 + y3 - z2 >= 0
If_lot_30_is_serviced_at_least_one_park_is_built: y15 + y45 - z30 >= 0
If_lot_31_is_serviced_at_least_one_park_is_built: y16 + y47 - z31 >= 0
If_lot_32_is_serviced_at_least_one_park_is_built: y16 + y47 - z32 >= 0
If_lot_33_is_serviced_at_least_one_park_is_built: y47 + y49 - z33 >= 0
If_lot_34_is_serviced_at_least_one_park_is_built: y49 - z34 >= 0
If_lot_35_is_serviced_at_least_one_park_is_built: y49 - z35 >= 0
If_lot_37_is_serviced_at_least_one_park_is_built: y38 - z37 >= 0
If_lot_39_is_serviced_at_least_one_park_is_built: y24 + y38 + y55 - z39 >= 0
If_lot_40_is_serviced_at_least_one_park_is_built: y24 + y55 - z40 >= 0
If_lot_41_is_serviced_at_least_one_park_is_built: y55 - z41 >= 0
If_lot_43_is_serviced_at_least_one_park_is_built: y59 - z43 >= 0
If_lot_44_is_serviced_at_least_one_park_is_built: y45 + y59 - z44 >= 0
If_lot_46_is_serviced_at_least_one_park_is_built: y47 - z46 >= 0
If_lot_48_is_serviced_at_least_one_park_is_built: y47 + y49 - z48 >= 0
If_lot_4_is_serviced_at_least_one_park_is_built: y3 - z4 >= 0
If_lot_50_is_serviced_at_least_one_park_is_built: y49 + y66 - z50 >= 0
If_lot_51_is_serviced_at_least_one_park_is_built: y66 - z51 >= 0
If_lot_52_is_serviced_at_least_one_park_is_built: y38 + y66 - z52 >= 0
If_lot_53_is_serviced_at_least_one_park_is_built: y38 - z53 >= 0
If_lot_54_is_serviced_at_least_one_park_is_built: y38 + y55 - z54 >= 0
If_lot_56_is_serviced_at_least_one_park_is_built: y55 + y72 - z56 >= 0
If_lot_57_is_serviced_at_least_one_park_is_built: y72 - z57 >= 0
If_lot_58_is_serviced_at_least_one_park_is_built: y59 + y72 - z58 >= 0
If_lot_60_is_serviced_at_least_one_park_is_built: y45 + y59 - z60 >= 0
If_lot_61_is_serviced_at_least_one_park_is_built: y47 - z61 >= 0
If_lot_62_is_serviced_at_least_one_park_is_built: y47 + y78 - z62 >= 0
If_lot_63_is_serviced_at_least_one_park_is_built: y47 + y49 + y78 - z63 >= 0
If_lot_64_is_serviced_at_least_one_park_is_built: y49 + y78 - z64 >= 0
If_lot_65_is_serviced_at_least_one_park_is_built: y49 + y66 - z65 >= 0
If_lot_67_is_serviced_at_least_one_park_is_built: y66 - z67 >= 0
If_lot_69_is_serviced_at_least_one_park_is_built: y55 - z69 >= 0
If_lot_70_is_serviced_at_least_one_park_is_built: y55 - z70 >= 0
If_lot_71_is_serviced_at_least_one_park_is_built: y55 + y72 - z71 >= 0
If_lot_73_is_serviced_at_least_one_park_is_built: y59 + y72 - z73 >= 0
If_lot_74_is_serviced_at_least_one_park_is_built: y59 - z74 >= 0
If_lot_75_is_serviced_at_least_one_park_is_built: y59 - z75 >= 0
If_lot_77_is_serviced_at_least_one_park_is_built: y78 - z77 >= 0
If_lot_79_is_serviced_at_least_one_park_is_built: y78 - z79 >= 0
If_lot_80_is_serviced_at_least_one_park_is_built: y66 - z80 >= 0
If_lot_81_is_serviced_at_least_one_park_is_built: y66 - z81 >= 0
If_lot_82_is_serviced_at_least_one_park_is_built: y66 + y98 - z82 >= 0
If_lot_83_is_serviced_at_least_one_park_is_built: y98 - z83 >= 0
If_lot_84_is_serviced_at_least_one_park_is_built: y98 - z84 >= 0
If_lot_86_is_serviced_at_least_one_park_is_built: y72 - z86 >= 0
If_lot_87_is_serviced_at_least_one_park_is_built: y72 - z87 >= 0
If_lot_88_is_serviced_at_least_one_park_is_built: y104 + y72 - z88 >= 0
If_lot_89_is_serviced_at_least_one_park_is_built: y104 - z89 >= 0
If_lot_8_is_serviced_at_least_one_park_is_built: y24 - z8 >= 0
If_lot_90_is_serviced_at_least_one_park_is_built: y104 - z90 >= 0
If_lot_91_is_serviced_at_least_one_park_is_built: y107 - z91 >= 0
If_lot_92_is_serviced_at_least_one_park_is_built: y107 + y108 + y78 - z92 >= 0
If_lot_93_is_serviced_at_least_one_park_is_built: y107 + y108 + y78 - z93 >= 0
If_lot_94_is_serviced_at_least_one_park_is_built: y108 + y110 + y78 - z94 >= 0
If_lot_95_is_serviced_at_least_one_park_is_built: y110 - z95 >= 0
If_lot_96_is_serviced_at_least_one_park_is_built: y110 - z96 >= 0
If_lot_97_is_serviced_at_least_one_park_is_built: y98 - z97 >= 0
If_lot_99_is_serviced_at_least_one_park_is_built: y98 - z99 >= 0
If_lot_9_is_serviced_at_least_one_park_is_built: y24 - z9 >= 0
Binaries
y104
y107
y108
y110
y117
y12
y122
y134
y146
y15
y16
y24
y3
y38
y45
y47
y49
y55
y59
y66
y72
y78
y98
z1
z10
z101
z102
z103
z105
z106
z109
z11
z111
z112
z113
z114
z116
z118
z119
z120
z121
z123
z124
z125
z126
z13
z130
z131
z132
z133
z135
z136
z137
z138
z14
z145
z147
z148
z149
z150
z17
z18
z19
z2
z22
z23
z25
z26
z27
z28
z29
z30
z31
z32
z33
z34
z35
z37
z39
z4
z40
z41
z43
z44
z46
z48
z50
z51
z52
z53
z54
z56
z57
z58
z60
z61
z62
z63
z64
z65
z67
z69
z70
z71
z73
z74
z75
z77
z79
z8
z80
z81
z82
z83
z84
z86
z87
z88
z89
z9
z90
z91
z92
z93
z94
z95
z96
z97
z99
End
